NAME : tsp_272_sol.txt
COMMENT : OR-Tools Guided Local Search
TYPE : TOUR
DIMENSION : 50
COST : 5732
STATUS : ROUTING_SUCCESS
GAP : 0.00% (Reference Solution)
TOUR_SECTION
1
46
10
38
39
22
11
12
9
34
4
18
27
49
48
6
41
3
43
21
19
13
14
45
8
40
31
50
24
35
23
28
36
30
25
7
47
2
15
44
42
26
29
37
17
5
32
33
20
16
-1
